r = [
0,51,18,25,65,31,4,12,3,9,34,0
];
p = [
0,1,5,1,9,23,6,26,21,22,27,0
];
e = [
0,4,4,20,4,12,1,6,16,19,3,0
];
d = [
0,107,97,76,110,116,63,112,97,48,86,128
];
d_bar = [
0,108,100,77,115,128,66,125,108,59,100,128
];
w = [
0,4,1.333333333,20,0.8,1,0.333333333,0.461538462,1.454545455,1.727272727,0.214285714,0
];
